NAME: tsp40_4
COMMENT: 40-tsp problem (Padberg/Rinaldi)
TYPE: TSP
DIMENSION: 40
EDGE_WEIGHT_TYPE : EUC_2D
NODE_COORD_SECTION
1 18 8
2 1 23
3 32 2
4 4 29
5 34 3
6 38 5
7 29 27
8 38 37
9 39 29
10 25 11
11 20 38
12 10 13
13 34 28
14 32 9
15 20 33
16 35 38
17 36 22
18 27 4
19 4 14
20 0 34
21 37 21
22 1 27
23 15 17
24 13 28
25 38 1
26 18 2
27 38 22
28 26 37
29 38 7
30 9 4
31 0 23
32 13 28
33 30 15
34 9 4
35 36 23
36 18 21
37 23 39
38 26 9
39 4 8
40 26 40
